gr229_gen2_m4 - First point and last point of each route is the depot

1, 16, 17, 18, 39, 38, 40, 98, 99, 101, 100, 107, 127, 128, 169, 131, 133, 134, 135, 137, 138, 165, 164, 163, 162, 159, 160, 161, 204, 206, 205, 224, 223, 216, 217, 218, 219, 222, 225, 226, 203, 202, 179, 178, 171, 173, 172, 170, 41, 37, 36, 33, 30, 29, 5, 236

2, 31, 32, 34, 35, 42, 43, 44, 45, 49, 187, 53, 51, 50, 48, 47, 52, 191, 192, 193, 194, 196, 195, 197, 198, 199, 201, 200, 190, 189, 188, 186, 185, 181, 183, 184, 182, 180, 177, 176, 168, 167, 166, 175, 136, 174, 130, 114, 117, 120, 119, 116, 115, 109, 104, 105, 106, 77, 78, 79, 80, 81, 82, 91, 83, 90, 84, 85, 86, 60, 59, 58, 56, 55, 54, 12, 10, 11, 6, 235


3, 15, 19, 20, 21, 23, 24, 25, 26, 27, 87, 28, 88, 89, 92, 93, 94, 95, 96, 97, 103, 102, 110, 108, 111, 112, 113, 129, 132, 141, 140, 139, 155, 156, 157, 154, 158, 153, 207, 215, 214, 213, 212, 210, 209, 208, 152, 151, 150, 149, 148, 147, 146, 144, 143, 142, 145, 126, 125, 124, 123, 122, 121, 118, 76, 75, 73, 74, 72, 71, 70, 66, 69, 68, 67, 65, 64, 63, 62, 61, 57, 22, 14, 13, 234


4, 227, 228, 230, 229, 9, 8, 7, 233
